c This Formular is generated by mcnf
c
c    horn? no 
c    forced? no 
c    mixed sat? no 
c    clause length = 3 
c
p cnf 20  91 
 -7 4 -5 0
6 -8 -7 0
5 11 20 0
-13 6 -10 0
-8 18 14 0
-5 1 -11 0
-6 -14 10 0
18 -20 -6 0
17 -6 11 0
5 6 -8 0
-10 -12 -13 0
18 -17 -13 0
-8 -13 11 0
-5 16 -8 0
-5 -7 -6 0
-5 1 -4 0
16 19 10 0
19 14 -18 0
-11 12 -13 0
18 12 -2 0
-15 8 -14 0
%
0

25 11 74 43 93 64 8 26 24 17 28 84 37 16 23 65 95 39 50 46
